Set parameter Username
Set parameter LogFile to value "gurobi.log"
Academic license - for non-commercial use only - expires 2024-05-02
Using license file /Users/sissi/gurobi.lic

Gurobi Optimizer version 10.0.1 build v10.0.1rc0 (mac64[arm])
Copyright (c) 2023, Gurobi Optimization, LLC

Read OPB format model from file pbo/p_pbo_0_920.opb
Reading time = 0.00 seconds
(null): 2005 rows, 1057 columns, 5973 nonzeros

CPU model: Apple M2
Thread count: 8 physical cores, 8 logical processors, using up to 8 threads

Optimize a model with 2005 rows, 1057 columns and 5973 nonzeros
Model fingerprint: 0xa22c98fe
Variable types: 0 continuous, 1057 integer (1057 binary)
Coefficient statistics:
  Matrix range     [1e+00, 1e+00]
  Objective range  [1e+00, 4e+00]
  Bounds range     [1e+00, 1e+00]
  RHS range        [1e+00, 1e+00]
Found heuristic solution: objective -358.0000000
Presolve removed 1057 rows and 539 columns
Presolve time: 0.01s
Presolved: 948 rows, 518 columns, 2844 nonzeros
Variable types: 0 continuous, 518 integer (518 binary)

Root relaxation: objective -6.060000e+02, 108 iterations, 0.00 seconds (0.00 work units)

    Nodes    |    Current Node    |     Objective Bounds      |     Work
 Expl Unexpl |  Obj  Depth IntInf | Incumbent    BestBd   Gap | It/Node Time

     0     0 -606.00000    0   44 -358.00000 -606.00000  69.3%     -    0s
     0     0 -425.42168    0  509 -358.00000 -425.42168  18.8%     -    0s
     0     0 -401.86538    0  510 -358.00000 -401.86538  12.3%     -    1s
     0     0 -400.71625    0  514 -358.00000 -400.71625  11.9%     -    1s
     0     0 -400.36698    0  513 -358.00000 -400.36698  11.8%     -    1s
     0     0 -400.24012    0  512 -358.00000 -400.24012  11.8%     -    1s
H    0     0                    -395.0000000 -395.55946  0.14%     -    1s
     0     0 -395.55946    0  514 -395.00000 -395.55946  0.14%     -    1s

Cutting planes:
  MIR: 106
  StrongCG: 1
  RLT: 334

Explored 1 nodes (5125 simplex iterations) in 1.77 seconds (0.77 work units)
Thread count was 8 (of 8 available processors)

Solution count 2: -395 -358 
No other solutions better than -395

Optimal solution found (tolerance 1.00e-04)
Best objective -3.950000000000e+02, best bound -3.950000000000e+02, gap 0.0000%

Wrote result file 'solution/p_0_920.sol'

